sat
(= |goto_symex::&92;guard#1| false)
(= |goto_symex::&92;guard#2| false)
(= |goto_symex::&92;guard#3| true)
(= |goto_symex::&92;guard#4| false)
(= |goto_symex::&92;guard#5| true)
(= |goto_symex::&92;guard#6| false)
(= |goto_symex::&92;guard#7| false)
(= |goto_symex::&92;guard#8| true)
(= |goto_symex::&92;guard#9| true)
(= |goto_symex::&92;guard#10| true)
(= |goto_symex::&92;guard#11| true)
(= |goto_symex::&92;guard#12| true)
(= |goto_symex::&92;guard#13| true)
(= |goto_symex::&92;guard#14| true)
(= |goto_symex::&92;guard#15| true)
(= |goto_symex::&92;guard#16| false)
(= |goto_symex::&92;guard#17| true)
(= |goto_symex::&92;guard#18| false)
(= |goto_symex::&92;guard#19| false)
(= |goto_symex::&92;guard#20| false)
(= |goto_symex::&92;guard#21| false)
(= |goto_symex::&92;guard#22| true)
(= |memory_model::choice_rf_0_33_0_8_T_0| true)
(= |memory_model::choice_rf_0_33_1_12_T_1| false)
(= |memory_model::choice_rf_0_33_2_12_T_2| false)
(= |memory_model::choice_rf_0_33_3_31_T_3| false)
(= |memory_model::choice_rf_0_37_0_8_T_4| false)
(= |memory_model::choice_rf_0_37_1_12_T_5| false)
(= |memory_model::choice_rf_0_37_2_12_T_6| false)
(= |memory_model::choice_rf_0_37_3_31_T_7| false)
(= |memory_model::choice_rf_0_41_0_8_T_8| false)
(= |memory_model::choice_rf_0_41_1_12_T_9| false)
(= |memory_model::choice_rf_0_41_2_12_T_10| false)
(= |memory_model::choice_rf_0_41_3_31_T_11| false)
(= |memory_model::choice_rf_1_11_0_8_T_12| true)
(= |memory_model::choice_rf_1_11_2_12_T_13| false)
(= |memory_model::choice_rf_1_11_3_31_T_14| false)
(= |memory_model::choice_rf_2_11_0_8_T_15| true)
(= |memory_model::choice_rf_2_11_1_12_T_16| false)
(= |memory_model::choice_rf_2_11_3_31_T_17| false)
(= |memory_model::choice_rf_3_30_0_8_T_18| false)
(= |memory_model::choice_rf_3_30_1_12_T_19| false)
(= |memory_model::choice_rf_3_30_2_12_T_20| false)
(= |memory_model::choice_rf_0_22_0_6_T_21| false)
(= |memory_model::choice_rf_0_22_0_19_T_22| true)
(= |memory_model::choice_rf_0_26_0_6_T_23| false)
(= |memory_model::choice_rf_0_26_0_19_T_24| false)
(= |memory_model::choice_rf_0_26_0_23_T_25| true)
(= |memory_model::choice_rf_0_32_0_6_T_26| false)
(= |memory_model::choice_rf_0_32_0_19_T_27| false)
(= |memory_model::choice_rf_0_32_0_23_T_28| false)
(= |memory_model::choice_rf_0_32_0_27_T_29| true)
(= |memory_model::choice_rf_0_36_0_6_T_30| false)
(= |memory_model::choice_rf_0_36_0_19_T_31| false)
(= |memory_model::choice_rf_0_36_0_23_T_32| false)
(= |memory_model::choice_rf_0_36_0_27_T_33| false)
(= |memory_model::choice_rf_0_40_0_6_T_34| false)
(= |memory_model::choice_rf_0_40_0_19_T_35| false)
(= |memory_model::choice_rf_0_40_0_23_T_36| false)
(= |memory_model::choice_rf_0_40_0_27_T_37| true)
(= |memory_model::choice_rf_1_0_0_11_F_38| true)
(= |memory_model::choice_rf_1_0_3_15_F_39| false)
(= |memory_model::choice_rf_1_0_3_20_F_40| false)
(= |memory_model::choice_rf_2_0_0_11_F_41| true)
(= |memory_model::choice_rf_2_0_3_15_F_42| false)
(= |memory_model::choice_rf_2_0_3_20_F_43| false)
(= |memory_model::choice_rf_3_12_0_11_F_44| true)
(= |memory_model::choice_rf_3_23_0_11_F_45| false)
(= |memory_model::choice_rf_3_23_3_15_F_46| false)
(= |memory_model::choice_rf_3_23_3_20_F_47| false)
(= |memory_model::choice_rf_1_1_0_9_F_48| true)
(= |memory_model::choice_rf_1_1_2_2_F_49| false)
(= |memory_model::choice_rf_1_1_2_10_F_50| false)
(= |memory_model::choice_rf_1_1_3_17_F_51| false)
(= |memory_model::choice_rf_1_1_3_19_F_52| false)
(= |memory_model::choice_rf_1_8_0_9_F_53| true)
(= |memory_model::choice_rf_1_8_1_2_F_54| false)
(= |memory_model::choice_rf_1_8_2_2_F_55| false)
(= |memory_model::choice_rf_1_8_2_10_F_56| false)
(= |memory_model::choice_rf_1_8_3_17_F_57| false)
(= |memory_model::choice_rf_1_8_3_19_F_58| false)
(= |memory_model::choice_rf_2_1_0_9_F_59| true)
(= |memory_model::choice_rf_2_1_1_2_F_60| false)
(= |memory_model::choice_rf_2_1_1_10_F_61| false)
(= |memory_model::choice_rf_2_1_3_17_F_62| false)
(= |memory_model::choice_rf_2_1_3_19_F_63| false)
(= |memory_model::choice_rf_2_8_0_9_F_64| false)
(= |memory_model::choice_rf_2_8_1_2_F_65| false)
(= |memory_model::choice_rf_2_8_1_10_F_66| false)
(= |memory_model::choice_rf_2_8_2_2_F_67| true)
(= |memory_model::choice_rf_2_8_3_17_F_68| false)
(= |memory_model::choice_rf_2_8_3_19_F_69| false)
(= |memory_model::choice_rf_3_2_0_9_F_70| true)
(= |memory_model::choice_rf_3_2_1_2_F_71| false)
(= |memory_model::choice_rf_3_2_1_10_F_72| false)
(= |memory_model::choice_rf_3_2_2_2_F_73| false)
(= |memory_model::choice_rf_3_2_2_10_F_74| false)
(= |memory_model::choice_rf_3_5_0_9_F_75| false)
(= |memory_model::choice_rf_3_5_1_2_F_76| false)
(= |memory_model::choice_rf_3_5_1_10_F_77| false)
(= |memory_model::choice_rf_3_5_2_2_F_78| false)
(= |memory_model::choice_rf_3_5_2_10_F_79| false)
(= |memory_model::choice_rf_3_6_0_9_F_80| true)
(= |memory_model::choice_rf_3_6_1_2_F_81| false)
(= |memory_model::choice_rf_3_6_1_10_F_82| false)
(= |memory_model::choice_rf_3_6_2_2_F_83| false)
(= |memory_model::choice_rf_3_6_2_10_F_84| false)
(= |memory_model::choice_rf_3_9_0_9_F_85| false)
(= |memory_model::choice_rf_3_9_1_2_F_86| false)
(= |memory_model::choice_rf_3_9_1_10_F_87| false)
(= |memory_model::choice_rf_3_9_2_2_F_88| false)
(= |memory_model::choice_rf_3_9_2_10_F_89| false)
(= |memory_model::choice_rf_3_16_0_9_F_90| false)
(= |memory_model::choice_rf_3_16_1_2_F_91| false)
(= |memory_model::choice_rf_3_16_1_10_F_92| false)
(= |memory_model::choice_rf_3_16_2_2_F_93| false)
(= |memory_model::choice_rf_3_16_2_10_F_94| false)
(= |memory_model::choice_rf_3_18_0_9_F_95| false)
(= |memory_model::choice_rf_3_18_1_2_F_96| false)
(= |memory_model::choice_rf_3_18_1_10_F_97| false)
(= |memory_model::choice_rf_3_18_2_2_F_98| false)
(= |memory_model::choice_rf_3_18_2_10_F_99| false)
(= |memory_model::choice_rf_3_18_3_17_F_100| false)
(= |memory_model::choice_rf_3_24_0_9_F_101| false)
(= |memory_model::choice_rf_3_24_1_2_F_102| false)
(= |memory_model::choice_rf_3_24_1_10_F_103| false)
(= |memory_model::choice_rf_3_24_2_2_F_104| false)
(= |memory_model::choice_rf_3_24_2_10_F_105| false)
(= |memory_model::choice_rf_3_24_3_17_F_106| false)
(= |memory_model::choice_rf_3_24_3_19_F_107| false)
(= |memory_model::choice_rf_1_3_0_10_F_108| true)
(= |memory_model::choice_rf_1_3_2_4_F_109| false)
(= |memory_model::choice_rf_1_3_2_9_F_110| false)
(= |memory_model::choice_rf_1_3_3_14_F_111| false)
(= |memory_model::choice_rf_1_3_3_22_F_112| false)
(= |memory_model::choice_rf_1_7_0_10_F_113| false)
(= |memory_model::choice_rf_1_7_1_4_F_114| false)
(= |memory_model::choice_rf_1_7_2_4_F_115| false)
(= |memory_model::choice_rf_1_7_2_9_F_116| false)
(= |memory_model::choice_rf_1_7_3_14_F_117| false)
(= |memory_model::choice_rf_1_7_3_22_F_118| false)
(= |memory_model::choice_rf_2_3_0_10_F_119| true)
(= |memory_model::choice_rf_2_3_1_4_F_120| false)
(= |memory_model::choice_rf_2_3_1_9_F_121| false)
(= |memory_model::choice_rf_2_3_3_14_F_122| false)
(= |memory_model::choice_rf_2_3_3_22_F_123| false)
(= |memory_model::choice_rf_2_7_0_10_F_124| false)
(= |memory_model::choice_rf_2_7_1_4_F_125| false)
(= |memory_model::choice_rf_2_7_1_9_F_126| false)
(= |memory_model::choice_rf_2_7_2_4_F_127| false)
(= |memory_model::choice_rf_2_7_3_14_F_128| false)
(= |memory_model::choice_rf_2_7_3_22_F_129| false)
(= |memory_model::choice_rf_3_3_0_10_F_130| true)
(= |memory_model::choice_rf_3_3_1_4_F_131| false)
(= |memory_model::choice_rf_3_3_1_9_F_132| false)
(= |memory_model::choice_rf_3_3_2_4_F_133| false)
(= |memory_model::choice_rf_3_3_2_9_F_134| false)
(= |memory_model::choice_rf_3_4_0_10_F_135| false)
(= |memory_model::choice_rf_3_4_1_4_F_136| false)
(= |memory_model::choice_rf_3_4_1_9_F_137| false)
(= |memory_model::choice_rf_3_4_2_4_F_138| false)
(= |memory_model::choice_rf_3_4_2_9_F_139| false)
(= |memory_model::choice_rf_3_7_0_10_F_140| true)
(= |memory_model::choice_rf_3_7_1_4_F_141| false)
(= |memory_model::choice_rf_3_7_1_9_F_142| false)
(= |memory_model::choice_rf_3_7_2_4_F_143| false)
(= |memory_model::choice_rf_3_7_2_9_F_144| false)
(= |memory_model::choice_rf_3_8_0_10_F_145| false)
(= |memory_model::choice_rf_3_8_1_4_F_146| false)
(= |memory_model::choice_rf_3_8_1_9_F_147| false)
(= |memory_model::choice_rf_3_8_2_4_F_148| false)
(= |memory_model::choice_rf_3_8_2_9_F_149| false)
(= |memory_model::choice_rf_3_13_0_10_F_150| false)
(= |memory_model::choice_rf_3_13_1_4_F_151| false)
(= |memory_model::choice_rf_3_13_1_9_F_152| false)
(= |memory_model::choice_rf_3_13_2_4_F_153| false)
(= |memory_model::choice_rf_3_13_2_9_F_154| false)
(= |memory_model::choice_rf_3_21_0_10_F_155| false)
(= |memory_model::choice_rf_3_21_1_4_F_156| false)
(= |memory_model::choice_rf_3_21_1_9_F_157| false)
(= |memory_model::choice_rf_3_21_2_4_F_158| false)
(= |memory_model::choice_rf_3_21_2_9_F_159| false)
(= |memory_model::choice_rf_3_21_3_14_F_160| false)
(= |memory_model::choice_rf_3_25_0_10_F_161| false)
(= |memory_model::choice_rf_3_25_1_4_F_162| false)
(= |memory_model::choice_rf_3_25_1_9_F_163| false)
(= |memory_model::choice_rf_3_25_2_4_F_164| false)
(= |memory_model::choice_rf_3_25_2_9_F_165| false)
(= |memory_model::choice_rf_3_25_3_14_F_166| false)
(= |memory_model::choice_rf_3_25_3_22_F_167| false)
(= |memory_model::choice_rf_3_1_0_13_F_168| true)
(= |memory_model::choice_rf_3_1_1_5_F_169| false)
(= |memory_model::choice_rf_3_1_1_6_F_170| false)
(= |memory_model::choice_rf_3_28_0_13_F_171| false)
(= |memory_model::choice_rf_3_28_1_5_F_172| false)
(= |memory_model::choice_rf_3_28_1_6_F_173| false)
(= |memory_model::choice_rf_3_0_0_14_F_174| true)
(= |memory_model::choice_rf_3_0_2_5_F_175| false)
(= |memory_model::choice_rf_3_0_2_6_F_176| false)
(= |memory_model::choice_rf_3_29_0_14_F_177| false)
(= |memory_model::choice_rf_3_29_2_5_F_178| true)
(= |memory_model::choice_rf_3_29_2_6_F_179| false)
(= |memory_model::choice_rf_0_42_0_12_F_180| false)
(= |memory_model::choice_rf_0_42_0_18_F_181| true)
(= |memory_model::choice_rf_0_42_3_11_F_182| false)
(= |memory_model::choice_rf_0_42_3_27_F_183| false)
(= |memory_model::choice_rf_0_43_0_12_F_184| false)
(= |memory_model::choice_rf_0_43_0_18_F_185| true)
(= |memory_model::choice_rf_0_43_3_11_F_186| false)
(= |memory_model::choice_rf_0_43_3_27_F_187| false)
(= |memory_model::choice_rf_3_10_0_12_F_188| false)
(= |memory_model::choice_rf_3_10_0_18_F_189| true)
(= |memory_model::choice_rf_3_10_0_44_F_190| false)
(= |memory_model::choice_rf_3_26_0_12_F_191| false)
(= |memory_model::choice_rf_3_26_0_18_F_192| false)
(= |memory_model::choice_rf_3_26_0_44_F_193| false)
(= |memory_model::choice_rf_3_26_3_11_F_194| false)
(= |memory_model::choice_rf_0_30_0_15_F_195| false)
(= |memory_model::choice_rf_0_30_0_20_F_196| true)
(= |memory_model::choice_rf_0_31_0_15_F_197| false)
(= |memory_model::choice_rf_0_31_0_20_F_198| true)
(= |memory_model::choice_rf_0_34_0_16_F_199| false)
(= |memory_model::choice_rf_0_34_0_24_F_200| true)
(= |memory_model::choice_rf_0_35_0_16_F_201| false)
(= |memory_model::choice_rf_0_35_0_24_F_202| true)
(= |memory_model::choice_rf_0_38_0_17_F_203| false)
(= |memory_model::choice_rf_0_38_0_28_F_204| true)
(= |memory_model::choice_rf_0_39_0_17_F_205| true)
(= |memory_model::choice_rf_0_39_0_28_F_206| false)
(= |memory_model::choice_ws-ext_0_8_1_12_T_207| true)
(= |memory_model::choice_ws-ext_0_8_2_12_T_208| true)
(= |memory_model::choice_ws-ext_0_8_3_31_T_209| true)
(= |memory_model::choice_ws-ext_1_12_2_12_T_210| true)
(= |memory_model::choice_ws-ext_1_12_3_31_T_211| false)
(= |memory_model::choice_ws-ext_2_12_3_31_T_212| false)
(= |memory_model::choice_ws-ext_0_11_3_15_F_213| true)
(= |memory_model::choice_ws-ext_0_11_3_20_F_214| true)
(= |memory_model::choice_ws-ext_0_9_1_2_F_215| true)
(= |memory_model::choice_ws-ext_0_9_1_10_F_216| true)
(= |memory_model::choice_ws-ext_0_9_2_2_F_217| true)
(= |memory_model::choice_ws-ext_0_9_2_10_F_218| true)
(= |memory_model::choice_ws-ext_0_9_3_17_F_219| true)
(= |memory_model::choice_ws-ext_0_9_3_19_F_220| true)
(= |memory_model::choice_ws-ext_1_2_2_2_F_221| true)
(= |memory_model::choice_ws-ext_1_2_2_10_F_222| true)
(= |memory_model::choice_ws-ext_1_2_3_17_F_223| true)
(= |memory_model::choice_ws-ext_1_2_3_19_F_224| true)
(= |memory_model::choice_ws-ext_1_10_2_2_F_225| false)
(= |memory_model::choice_ws-ext_1_10_2_10_F_226| true)
(= |memory_model::choice_ws-ext_1_10_3_17_F_227| false)
(= |memory_model::choice_ws-ext_1_10_3_19_F_228| false)
(= |memory_model::choice_ws-ext_2_2_3_17_F_229| true)
(= |memory_model::choice_ws-ext_2_2_3_19_F_230| true)
(= |memory_model::choice_ws-ext_2_10_3_17_F_231| false)
(= |memory_model::choice_ws-ext_2_10_3_19_F_232| false)
(= |memory_model::choice_ws-ext_0_10_1_4_F_233| true)
(= |memory_model::choice_ws-ext_0_10_1_9_F_234| true)
(= |memory_model::choice_ws-ext_0_10_2_4_F_235| true)
(= |memory_model::choice_ws-ext_0_10_2_9_F_236| true)
(= |memory_model::choice_ws-ext_0_10_3_14_F_237| true)
(= |memory_model::choice_ws-ext_0_10_3_22_F_238| true)
(= |memory_model::choice_ws-ext_1_4_2_4_F_239| false)
(= |memory_model::choice_ws-ext_1_4_2_9_F_240| true)
(= |memory_model::choice_ws-ext_1_4_3_14_F_241| false)
(= |memory_model::choice_ws-ext_1_4_3_22_F_242| false)
(= |memory_model::choice_ws-ext_1_9_2_4_F_243| false)
(= |memory_model::choice_ws-ext_1_9_2_9_F_244| true)
(= |memory_model::choice_ws-ext_1_9_3_14_F_245| false)
(= |memory_model::choice_ws-ext_1_9_3_22_F_246| false)
(= |memory_model::choice_ws-ext_2_4_3_14_F_247| true)
(= |memory_model::choice_ws-ext_2_4_3_22_F_248| true)
(= |memory_model::choice_ws-ext_2_9_3_14_F_249| false)
(= |memory_model::choice_ws-ext_2_9_3_22_F_250| false)
(= |memory_model::choice_ws-ext_0_13_1_5_F_251| true)
(= |memory_model::choice_ws-ext_0_13_1_6_F_252| true)
(= |memory_model::choice_ws-ext_0_14_2_5_F_253| true)
(= |memory_model::choice_ws-ext_0_14_2_6_F_254| true)
(= |memory_model::choice_ws-ext_0_12_3_11_F_255| true)
(= |memory_model::choice_ws-ext_0_12_3_27_F_256| true)
(= |memory_model::choice_ws-ext_0_18_3_11_F_257| true)
(= |memory_model::choice_ws-ext_0_18_3_27_F_258| true)
(= |memory_model::choice_ws-ext_0_44_3_11_F_259| false)
(= |memory_model::choice_ws-ext_0_44_3_27_F_260| false)
(= |pthread_join::thread!0@1#1| #b00000000000000000000000000000001)
(= |pthread_join::thread!0@2#1| #b00000000000000000000000000000010)
(= |pthread_join::thread!0@3#1| #b10000000000000000000000000000011)
(= |ctr1#3| #b00000000000000000000000000000001)
(= |__VERIFIER_atomic_use1::myidx!1@1#1| #b00000000000000000000000000000000)
(= |ctr2#3| #b00000000000000000000000000000000)
(= |__VERIFIER_atomic_use2::myidx!1@1#1| #b00000000000000000000000000000000)
(= |ctr1#12| #b00000000000000000000000000000001)
(= |__VERIFIER_atomic_use1::myidx!2@1#1| #b00000000000000000000000000000000)
(= |ctr2#10| #b00000000000000000000000000000000)
(= |__VERIFIER_atomic_use2::myidx!2@1#1| #b00000000000000000000000000000000)
(=
 |mutex#7|
 #b00000000000000000000000000000000000000000000000000000000000000000000000000000000000000000000000000000000000000000000000000000000000000000000000000000000000000000000000000000000000000000000000000000000000000000000000000000000000000000000000000000000000000000000000000000000000000000000000000000000000000000000000000000000)
(= |readerprogress1#7| #b00000000000000000000000000000001)
(= |__VERIFIER_atomic_check_progress1::readerstart1!3@1#1| #b00000000000000000000000000000001)
(= |readerprogress2#7| #b00000000000000000000000000000001)
(= |__VERIFIER_atomic_check_progress2::readerstart2!3@1#1| #b00000000000000000000000000000001)
(= |__CPROVER_next_thread_id#3| #b00000000000000000000000000000001)
(= |__CPROVER_next_thread_id#6| #b00000000000000000000000000000010)
(= |main::1::t1!0@1#4| #b00000000000000000000000000000001)
(= |__CPROVER_next_thread_id#9| #b00000000000000000000000000000011)
(= |main::1::t2!0@1#4| #b00000000000000000000000000000010)
(= |__CPROVER_next_thread_id#10| #b00000000000000000000000000000001)
(= |main::1::t3!0@1#4| #b10000000000000000000000000000011)
(= |__CPROVER_next_thread_id#11| #b00000000000000000000000000000011)
(=
 |mutex#4|
 #b00000000000000000000000000000000000000000000000000000000000000000000000000000000000000000000000000000000000000000000000000000000000000000000000000000000000000000000000000000000000000000000000000000000000000000000000000000000000000000000000000000000000000000000000000000000000000000000000000000000000000000000000000000000)
(= |pthread_create::1::this_thread_id!1@0#0| #b00000000000000000000000000000000)
(= |idx#2| #b00000000000000000000000000000000)
(= |nondet_symex::nondet1| #b00000000000000000000000000000000)
(= |ctr1#2| #b00000000000000000000000000000001)
(= |nondet_symex::nondet2| #b10000000000000000000000000000000)
(= |ctr2#2| #b00000000000000000000000000000000)
(= |ctr1#6| #b00000000000000000000000000000001)
(= |ctr2#5| #b10000000000000000000000000000000)
(= |pthread_create::1::this_thread_id!2@0#0| #b00000000000000000000000000000000)
(= |idx#3| #b00000000000000000000000000000000)
(= |nondet_symex::nondet3| #b10000000000000000000000000000000)
(= |ctr1#11| #b00000000000000000000000000000001)
(= |nondet_symex::nondet4| #b10000000000000000000000000000000)
(= |ctr2#9| #b00000000000000000000000000000000)
(= |ctr1#15| #b00000000000000000000000000000010)
(= |ctr2#12| #b00000000000000000000000000000010)
(= |pthread_create::1::this_thread_id!3@0#0| #b00000000000000000000000000000000)
(= |nondet_symex::nondet5| #b00000000000000000000000000000001)
(= |nondet_symex::nondet6| #b00000000000000000000000000000001)
(= |readerprogress1#4| #b00000000000000000000000000000000)
(= |readerprogress2#4| #b00000000000000000000000000000000)
(= |nondet_symex::nondet7| #b10000000000000000000000000000000)
(= |ctr1#20| #b00000000000000000000000000000001)
(= |ctr2#16| #b00000000000000000000000000000000)
(= |ctr2#17| #b10000000000000000000000000000000)
(= |ctr1#21| #b10000000000000000000000000000000)
(= |nondet_symex::nondet8| #b10000000000000000000000000000000)
(= |ctr1#22| #b00000000000000000000000000000001)
(= |ctr2#18| #b00000000000000000000000000000000)
(= |ctr2#19| #b10000000000000000000000000000000)
(= |ctr1#23| #b10000000000000000000000000000000)
(=
 |mutex#6|
 #b00000000000000000000000000000000000000000000000000000000000000000000000000000000000000000000000000000000000000000000000000000000000000000000000000000000000000000000000000000000000000000000000000000000000000000000000000000000000000000000000000000000000000000000000000000000000000000000000000000000000000000000000000000000)
(= |idx#4| #b00000000000000000000000000000000)
(= |ctr2#20| #b00000000000000000000000000000001)
(= |ctr1#24| #b00000000000000000000000000000011)
(= |ctr1#26| #b10000000000000000000000000000000)
(= |ctr2#22| #b10000000000000000000000000000000)
(= |idx#7| #b00000000000000000000000000000001)
(= |ctr1#28| #b10000000000000000000000000000000)
(= |ctr2#24| #b00000000000000000000000000000000)
(=
 |mutex#10|
 #b00000000000000000000000000000000000000000000000000000000000000000000000000000000000000000000000000000000000000000000000000000000000000000000000000000000000000000000000000000000000000000000000000000000000000000000000000000000000000000000000000000000000000000000000000000000000000000000000000000000000000000000000000000001)
(= |nondet_symex::nondet9| #b00000000000000000000000000000000)
(= |readerprogress1#6| #b00000000000000000000000000000001)
(= |nondet_symex::nondet10| #b10000000000000000000000000000000)
(= |readerprogress2#6| #b00000000000000000000000000000001)
(= |main::1::t1!0@1#1| #b10000000000000000000000000000001)
(= |main::1::t2!0@1#1| #b10000000000000000000000000000010)
(= |main::1::t3!0@1#1| #b10000000000000000000000000000011)
(=
 |mutex#3|
 #b00000000000000000000000000000000000000000000000000000000000000000000000000000000000000000000000000000000000000000000000000000000000000000000000000000000000000000000000000000000000000000000000000000000000000000000000000000000000000000000000000000000000000000000000000000000000000000000000000000000000000000000000000000000)
(= |__CPROVER_threads_exited#6$wclk$8| #b1111110)
(= |__CPROVER_threads_exited#2$rclk$8| #b1100111)
(= |__CPROVER_threads_exited#8$wclk$8| #b1111111)
(= |__CPROVER_threads_exited#10$wclk$8| #b1111011)
(= |__CPROVER_threads_exited#3$rclk$8| #b1110010)
(= |__CPROVER_threads_exited#4$rclk$8| #b1110111)
(= |__CPROVER_threads_exited#1$wclk$8| #b0001011)
(= |__CPROVER_threads_exited#5$rclk$8| #b1111101)
(= |__CPROVER_threads_exited#7$rclk$8| #b1111110)
(= |__CPROVER_threads_exited#9$rclk$8| #b1110010)
(= |idx#1$wclk$8| #b0001110)
(= |idx#2$rclk$8| #b0111110)
(= |idx#5$wclk$8| #b1100011)
(= |idx#6$wclk$8| #b1101000)
(= |idx#3$rclk$8| #b0111100)
(= |idx#4$rclk$8| #b1011111)
(= |idx#7$rclk$8| #b1101011)
(= |ctr1#1$wclk$8| #b0001100)
(= |ctr1#2$rclk$8| #b0111111)
(= |ctr1#14$wclk$8| #b1001110)
(= |ctr1#19$wclk$8| #b1111101)
(= |ctr1#25$wclk$8| #b1100101)
(= |ctr1#27$wclk$8| #b1100111)
(= |ctr1#6$rclk$8| #b1111100)
(= |ctr1#11$rclk$8| #b1001110)
(= |ctr1#5$wclk$8| #b0111111)
(= |ctr1#10$wclk$8| #b1111100)
(= |ctr1#15$rclk$8| #b1111101)
(= |ctr1#20$rclk$8| #b0110100)
(= |ctr1#21$rclk$8| #b0110111)
(= |ctr1#22$rclk$8| #b0111110)
(= |ctr1#23$rclk$8| #b1011101)
(= |ctr1#24$rclk$8| #b1100100)
(= |ctr1#26$rclk$8| #b1100110)
(= |ctr1#28$rclk$8| #b1101101)
(= |ctr2#1$wclk$8| #b0001101)
(= |ctr2#2$rclk$8| #b1110101)
(= |ctr2#11$wclk$8| #b1100000)
(= |ctr2#15$wclk$8| #b1111101)
(= |ctr2#21$wclk$8| #b1100010)
(= |ctr2#23$wclk$8| #b1101010)
(= |ctr2#5$rclk$8| #b1111100)
(= |ctr2#9$rclk$8| #b1100000)
(= |ctr2#4$wclk$8| #b1110101)
(= |ctr2#8$wclk$8| #b1111100)
(= |ctr2#12$rclk$8| #b1111101)
(= |ctr2#16$rclk$8| #b0110101)
(= |ctr2#17$rclk$8| #b0110110)
(= |ctr2#18$rclk$8| #b0111111)
(= |ctr2#19$rclk$8| #b1011100)
(= |ctr2#20$rclk$8| #b1100001)
(= |ctr2#22$rclk$8| #b1101001)
(= |ctr2#24$rclk$8| #b1101110)
(= |readerprogress1#1$wclk$8| #b0010000)
(= |readerprogress1#4$rclk$8| #b0110011)
(= |readerprogress1#2$wclk$8| #b1110110)
(= |readerprogress1#3$wclk$8| #b1110111)
(= |readerprogress1#6$rclk$8| #b1110000)
(= |readerprogress2#1$wclk$8| #b0010001)
(= |readerprogress2#4$rclk$8| #b0110011)
(= |readerprogress2#2$wclk$8| #b1101010)
(= |readerprogress2#3$wclk$8| #b1111000)
(= |readerprogress2#6$rclk$8| #b1110001)
(= |mutex#9$wclk$8| #b1011110)
(= |mutex#3$rclk$8| #b1111001)
(= |mutex#12$wclk$8| #b1101111)
(= |mutex#4$rclk$8| #b1111011)
(= |mutex#1$wclk$8| #b0001111)
(= |mutex#6$rclk$8| #b1011110)
(= |mutex#2$wclk$8| #b0010101)
(= |mutex#5$wclk$8| #b1111110)
(= |mutex#10$rclk$8| #b1101111)
(= |main::1::t1!0@1#3| #b00000000000000000000000000000001)
(= |main::1::t2!0@1#3| #b00000000000000000000000000000010)
(= |main::1::t3!0@1#3| #b00000000000000000000000000000011)
(= t1$21$spwnclk$8 #b0011100)
(= t1$25$spwnclk$8 #b0101111)
(= t1$29$spwnclk$8 #b0110010)
(= |__CPROVER_dead_object#1$wclk$8| #b0000000)
(= |__CPROVER_deallocated#1$wclk$8| #b0000001)
(= |__CPROVER_malloc_is_new_array#1$wclk$8| #b0000010)
(= |__CPROVER_malloc_object#1$wclk$8| #b0000011)
(= |__CPROVER_malloc_size#1$wclk$8| #b0000100)
(= |__CPROVER_memory_leak#1$wclk$8| #b0001000)
(= |__CPROVER_next_thread_id#1$wclk$8| #b0001001)
(= |__CPROVER_pipe_count#1$wclk$8| #b0001010)
(= |main::1::t1!0@1#1$wclk$8| #b0010010)
(= |main::1::t2!0@1#1$wclk$8| #b0010011)
(= |main::1::t3!0@1#1$wclk$8| #b0010100)
(= |__CPROVER_next_thread_id#2$wclk$8| #b0010110)
(= |main::1::t1!0@1#2$wclk$8| #b0011011)
(= |__CPROVER_next_thread_id#3$rclk$8| #b0011101)
(= |__CPROVER_next_thread_id#5$wclk$8| #b0011101)
(= |main::1::t2!0@1#2$wclk$8| #b0101110)
(= |__CPROVER_next_thread_id#6$rclk$8| #b0110000)
(= |__CPROVER_next_thread_id#8$wclk$8| #b0110000)
(= |main::1::t3!0@1#2$wclk$8| #b0110001)
(= |main::1::t1!0@1#3$rclk$8| #b0111100)
(= |main::1::t1!0@1#4$rclk$8| #b0111101)
(= |__CPROVER_next_thread_id#9$rclk$8| #b1100110)
(= |main::1::t2!0@1#3$rclk$8| #b1101000)
(= |main::1::t2!0@1#4$rclk$8| #b1101001)
(= |__CPROVER_next_thread_id#10$rclk$8| #b1101010)
(= |main::1::t3!0@1#3$rclk$8| #b1110011)
(= |main::1::t3!0@1#4$rclk$8| #b1110101)
(= |__CPROVER_next_thread_id#11$rclk$8| #b1110110)
(= |__CPROVER_threads_exited#2| @fun_88)
(= |__CPROVER_threads_exited#3| @fun_94)
(= |__CPROVER_threads_exited#4| @fun_91)
(= array_of.0 @fun_88)
(= array.1 @fun_85)
(= |__CPROVER_threads_exited#5| @fun_88)
(= |__CPROVER_threads_exited#7| @fun_88)
(= |__CPROVER_threads_exited#9| @fun_91)
(function @fun_88
 (type (Array (_ BitVec 32) (_ BitVec 1)))
 (= (@fun_88 #b00000000000000000000000000000000) #b0)
 (= (@fun_88 #b10000000000000000000000000000000) #b0)
 (default #b1))
(function @fun_94
 (type (Array (_ BitVec 32) (_ BitVec 1)))
 (default #b1))
(function @fun_91
 (type (Array (_ BitVec 32) (_ BitVec 1)))
 (default #b0))
(function @fun_85
 (type (Array (_ BitVec 32) (_ BitVec 8)))
 (default #b00000000))

real	0m0.034s
user	0m0.031s
sys	0m0.003s
State: AC Run_time: 0.035936832427978516